letting n =  10
letting blocks =  [[1, 1], [1, 4], [1, 7], [1, 8], [2, 2], [2, 3], [2, 4], [2, 8], [2, 9], [3, 2], [3, 3], [3, 7], [3, 8], [4, 1], [4, 3], [4, 5], [4, 7], [4, 9], [5, 3], [5, 9], [6, 3], [6, 5], [6, 7], [6, 9], [7, 10], [8, 4], [8, 7], [8, 8], [9, 1], [9, 5], [9, 9], [9, 10], [10, 1], [10, 3], [10, 5], [10, 7]]
